language ESSENCE' 1.0
letting values be [[1, 7, 0, 0, 3, 8, 5, 0, 0], [3, 0, 9, 0, 1, 7, 0, 4, 0], [0, 0, 6, 0, 5, 0, 0, 3, 0], [5, 6, 0, 0, 0, 2, 8, 0, 4], [0, 1, 4, 8, 0, 0, 7, 5, 6], [0, 0, 7, 5, 4, 0, 0, 1, 0], [7, 0, 0, 0, 0, 1, 0, 8, 3], [6, 2, 1, 3, 8, 4, 0, 7, 0], [9, 0, 0, 7, 6, 5, 4, 2, 1]]